nK = 1169;
nT = 4;
nI = 7;
L = 29;
TT = 245;
np = 1;
nc = 3;
b = [21, 42, 49, 50, 35, 37, 21];
d = [50, 107, 134, 92, 112, 96, 112];
m = [2, 2, 1.6, 1.7, 1.4, 1.3, 2.4];
pt = [0.35, 0.29, 0.2, 0.29];
st = [19.25, 15.95, 11.2, 14.79];
arc = {<1, 0, 1, 1, 0, 0, 0, [1, 1, 1, 1]>, <2, 1, 2, 1, 0, 0, 0, [1, 1, 1, 1]>, <3, 2, 3, 1, 0, 0, 0, [1, 1, 1, 1]>, <4, 3, 4, 1, 0, 0, 0, [1, 1, 1, 1]>, <5, 4, 5, 1, 0, 0, 0, [1, 1, 1, 1]>, <6, 5, 6, 1, 0, 0, 0, [1, 1, 1, 1]>, <7, 6, 7, 1, 0, 0, 0, [1, 1, 1, 1]>, <8, 7, 8, 1, 0, 0, 0, [1, 1, 1, 1]>, <9, 8, 9, 1, 0, 0, 0, [1, 1, 1, 1]>, <10, 9, 10, 1, 0, 0, 0, [1, 1, 1, 1]>, <11, 10, 11, 1, 0, 0, 0, [1, 1, 1, 1]>, <12, 11, 12, 1, 0, 0, 0, [1, 1, 1, 1]>, <13, 12, 13, 1, 0, 0, 0, [1, 1, 1, 1]>, <14, 13, 14, 1, 0, 0, 0, [1, 1, 1, 1]>, <15, 14, 15, 1, 0, 0, 0, [1, 1, 1, 1]>, <16, 15, 16, 1, 0, 0, 0, [1, 1, 1, 1]>, <17, 16, 17, 1, 0, 0, 0, [1, 1, 1, 1]>, <18, 17, 18, 1, 0, 0, 0, [1, 1, 1, 1]>, <19, 18, 19, 1, 0, 0, 0, [1, 1, 1, 1]>, <20, 19, 20, 1, 0, 0, 0, [1, 1, 1, 1]>, <21, 20, 21, 1, 0, 0, 0, [1, 1, 1, 1]>, <22, 21, 22, 1, 0, 0, 0, [1, 1, 1, 1]>, <23, 22, 23, 1, 0, 0, 0, [1, 1, 1, 1]>, <24, 23, 24, 1, 0, 0, 0, [1, 1, 1, 1]>, <25, 24, 25, 1, 0, 0, 0, [1, 1, 1, 1]>, <26, 25, 26, 1, 0, 0, 0, [1, 1, 1, 1]>, <27, 26, 27, 1, 0, 0, 0, [1, 1, 1, 1]>, <28, 27, 28, 1, 0, 0, 0, [1, 1, 1, 1]>, <29, 28, 29, 1, 0, 0, 0, [1, 1, 1, 1]>, <30, 0, 14, 14, 1, 1, 0, [0, 1, 1, 1]>, <31, 1, 15, 14, 1, 1, 0, [0, 1, 1, 1]>, <32, 2, 16, 14, 1, 1, 0, [0, 1, 1, 1]>, <33, 3, 17, 14, 1, 1, 0, [0, 1, 1, 1]>, <34, 4, 18, 14, 1, 1, 0, [0, 1, 1, 1]>, <35, 5, 19, 14, 1, 1, 0, [0, 1, 1, 1]>, <36, 6, 20, 14, 1, 1, 0, [0, 1, 1, 1]>, <37, 7, 21, 14, 1, 1, 0, [0, 1, 1, 1]>, <38, 8, 22, 14, 1, 1, 0, [0, 1, 1, 1]>, <39, 9, 23, 14, 1, 1, 0, [0, 1, 1, 1]>, <40, 10, 24, 14, 1, 1, 0, [0, 1, 1, 1]>, <41, 11, 25, 14, 1, 1, 0, [0, 1, 1, 1]>, <42, 12, 26, 14, 1, 1, 0, [0, 1, 1, 1]>, <43, 13, 27, 14, 1, 1, 0, [0, 1, 1, 1]>, <44, 14, 28, 14, 1, 1, 0, [0, 1, 1, 1]>, <45, 15, 29, 14, 1, 1, 0, [0, 1, 1, 1]>, <46, 0, 18, 18, 2, 0, 1, [1, 1, 0, 1]>, <47, 1, 19, 18, 2, 0, 1, [1, 1, 0, 1]>, <48, 2, 20, 18, 2, 0, 1, [1, 1, 0, 1]>, <49, 3, 21, 18, 2, 0, 1, [1, 1, 0, 1]>, <50, 4, 22, 18, 2, 0, 1, [1, 1, 0, 1]>, <51, 5, 23, 18, 2, 0, 1, [1, 1, 0, 1]>, <52, 6, 24, 18, 2, 0, 1, [1, 1, 0, 1]>, <53, 7, 25, 18, 2, 0, 1, [1, 1, 0, 1]>, <54, 8, 26, 18, 2, 0, 1, [1, 1, 0, 1]>, <55, 9, 27, 18, 2, 0, 1, [1, 1, 0, 1]>, <56, 10, 28, 18, 2, 0, 1, [1, 1, 0, 1]>, <57, 11, 29, 18, 2, 0, 1, [1, 1, 0, 1]>, <58, 0, 14, 14, 3, 0, 1, [1, 0, 1, 1]>, <59, 1, 15, 14, 3, 0, 1, [1, 0, 1, 1]>, <60, 2, 16, 14, 3, 0, 1, [1, 0, 1, 1]>, <61, 3, 17, 14, 3, 0, 1, [1, 0, 1, 1]>, <62, 4, 18, 14, 3, 0, 1, [1, 0, 1, 1]>, <63, 5, 19, 14, 3, 0, 1, [1, 0, 1, 1]>, <64, 6, 20, 14, 3, 0, 1, [1, 0, 1, 1]>, <65, 7, 21, 14, 3, 0, 1, [1, 0, 1, 1]>, <66, 8, 22, 14, 3, 0, 1, [1, 0, 1, 1]>, <67, 9, 23, 14, 3, 0, 1, [1, 0, 1, 1]>, <68, 10, 24, 14, 3, 0, 1, [1, 0, 1, 1]>, <69, 11, 25, 14, 3, 0, 1, [1, 0, 1, 1]>, <70, 12, 26, 14, 3, 0, 1, [1, 0, 1, 1]>, <71, 13, 27, 14, 3, 0, 1, [1, 0, 1, 1]>, <72, 14, 28, 14, 3, 0, 1, [1, 0, 1, 1]>, <73, 15, 29, 14, 3, 0, 1, [1, 0, 1, 1]>, <74, 0, 15, 15, 4, 0, 0, [1, 1, 0, 1]>, <75, 1, 16, 15, 4, 0, 0, [1, 1, 0, 1]>, <76, 2, 17, 15, 4, 0, 0, [1, 1, 0, 1]>, <77, 3, 18, 15, 4, 0, 0, [1, 1, 0, 1]>, <78, 4, 19, 15, 4, 0, 0, [1, 1, 0, 1]>, <79, 5, 20, 15, 4, 0, 0, [1, 1, 0, 1]>, <80, 6, 21, 15, 4, 0, 0, [1, 1, 0, 1]>, <81, 7, 22, 15, 4, 0, 0, [1, 1, 0, 1]>, <82, 8, 23, 15, 4, 0, 0, [1, 1, 0, 1]>, <83, 9, 24, 15, 4, 0, 0, [1, 1, 0, 1]>, <84, 10, 25, 15, 4, 0, 0, [1, 1, 0, 1]>, <85, 11, 26, 15, 4, 0, 0, [1, 1, 0, 1]>, <86, 12, 27, 15, 4, 0, 0, [1, 1, 0, 1]>, <87, 13, 28, 15, 4, 0, 0, [1, 1, 0, 1]>, <88, 14, 29, 15, 4, 0, 0, [1, 1, 0, 1]>, <89, 0, 16, 16, 5, 0, 0, [1, 1, 0, 1]>, <90, 1, 17, 16, 5, 0, 0, [1, 1, 0, 1]>, <91, 2, 18, 16, 5, 0, 0, [1, 1, 0, 1]>, <92, 3, 19, 16, 5, 0, 0, [1, 1, 0, 1]>, <93, 4, 20, 16, 5, 0, 0, [1, 1, 0, 1]>, <94, 5, 21, 16, 5, 0, 0, [1, 1, 0, 1]>, <95, 6, 22, 16, 5, 0, 0, [1, 1, 0, 1]>, <96, 7, 23, 16, 5, 0, 0, [1, 1, 0, 1]>, <97, 8, 24, 16, 5, 0, 0, [1, 1, 0, 1]>, <98, 9, 25, 16, 5, 0, 0, [1, 1, 0, 1]>, <99, 10, 26, 16, 5, 0, 0, [1, 1, 0, 1]>, <100, 11, 27, 16, 5, 0, 0, [1, 1, 0, 1]>, <101, 12, 28, 16, 5, 0, 0, [1, 1, 0, 1]>, <102, 13, 29, 16, 5, 0, 0, [1, 1, 0, 1]>, <103, 0, 15, 15, 6, 1, 0, [0, 1, 1, 1]>, <104, 1, 16, 15, 6, 1, 0, [0, 1, 1, 1]>, <105, 2, 17, 15, 6, 1, 0, [0, 1, 1, 1]>, <106, 3, 18, 15, 6, 1, 0, [0, 1, 1, 1]>, <107, 4, 19, 15, 6, 1, 0, [0, 1, 1, 1]>, <108, 5, 20, 15, 6, 1, 0, [0, 1, 1, 1]>, <109, 6, 21, 15, 6, 1, 0, [0, 1, 1, 1]>, <110, 7, 22, 15, 6, 1, 0, [0, 1, 1, 1]>, <111, 8, 23, 15, 6, 1, 0, [0, 1, 1, 1]>, <112, 9, 24, 15, 6, 1, 0, [0, 1, 1, 1]>, <113, 10, 25, 15, 6, 1, 0, [0, 1, 1, 1]>, <114, 11, 26, 15, 6, 1, 0, [0, 1, 1, 1]>, <115, 12, 27, 15, 6, 1, 0, [0, 1, 1, 1]>, <116, 13, 28, 15, 6, 1, 0, [0, 1, 1, 1]>, <117, 14, 29, 15, 6, 1, 0, [0, 1, 1, 1]>, <118, 0, 14, 14, 7, 0, 1, [1, 0, 1, 1]>, <119, 1, 15, 14, 7, 0, 1, [1, 0, 1, 1]>, <120, 2, 16, 14, 7, 0, 1, [1, 0, 1, 1]>, <121, 3, 17, 14, 7, 0, 1, [1, 0, 1, 1]>, <122, 4, 18, 14, 7, 0, 1, [1, 0, 1, 1]>, <123, 5, 19, 14, 7, 0, 1, [1, 0, 1, 1]>, <124, 6, 20, 14, 7, 0, 1, [1, 0, 1, 1]>, <125, 7, 21, 14, 7, 0, 1, [1, 0, 1, 1]>, <126, 8, 22, 14, 7, 0, 1, [1, 0, 1, 1]>, <127, 9, 23, 14, 7, 0, 1, [1, 0, 1, 1]>, <128, 10, 24, 14, 7, 0, 1, [1, 0, 1, 1]>, <129, 11, 25, 14, 7, 0, 1, [1, 0, 1, 1]>, <130, 12, 26, 14, 7, 0, 1, [1, 0, 1, 1]>, <131, 13, 27, 14, 7, 0, 1, [1, 0, 1, 1]>, <132, 14, 28, 14, 7, 0, 1, [1, 0, 1, 1]>, <133, 15, 29, 14, 7, 0, 1, [1, 0, 1, 1]>};
